100
128
8
13
21
58
37
55
9
30
38
3
27
63
24
29
32
10
6
44
3
39
6
63
53
9
11
49
12
14
17
15
35
10
38
16
17
24
22
11
7
56
16
13
10
2
30
15
43
18
9
14
8
24
9
8
29
5
35
17
28
23
55
54
37
51
53
11
12
28
30
19
55
16
18
40
36
19
17
45
27
13
37
60
38
54
13
36
15
18
22
14
63
29
16
57
30
23
2
27
58
43